tsp_instances/TSP50/instance34.tsp
NODE_COORD_SECTION
0 31 134
1 32 16
2 20 86
3 71 98
4 158 165
5 134 94
6 175 22
7 81 143
8 59 124
9 194 157
10 94 161
11 60 56
12 68 76
13 73 81
14 48 169
15 22 176
16 116 185
17 200 1
18 188 30
19 86 79
20 100 158
21 104 51
22 99 146
23 199 172
24 184 168
25 132 20
26 165 89
27 67 44
28 77 195
29 194 28
30 3 11
31 32 42
32 152 182
33 124 95
34 118 118
35 133 87
36 76 41
37 184 82
38 5 178
39 70 97
40 180 110
41 109 153
42 66 132
43 90 46
44 163 63
45 130 184
46 43 65
47 46 152
48 139 124
49 35 59
