tsp_instances/TSP50/instance34.opt.tour
TOUR_SECTION
1
9
43
8
11
21
42
23
35
49
6
36
34
20
4
40
14
13
12
47
3
50
32
31
2
28
37
44
22
26
7
18
30
19
45
27
38
41
10
24
25
5
33
46
17
29
15
16
39
48
-1